(declare-rel inv2 (Int Int Int))
(declare-rel fail ())
(declare-var A Int)
(declare-var B Int)
(declare-var C Int)
(declare-var D Int)
(declare-var E Int)
(rule (=> (and (= C 0) (= B 0) (= 1351235 A)) (inv2 C B A)))
(rule (let ((a!1 (= E (ite (= (mod C 2) 0) (+ B 1) B))))
  (=> (and (inv2 C B A) (= D (+ C 1)) a!1) (inv2 D E A))))
(rule (=> (and (inv2 C B A) (= C (* 2 A)) (not (= B A))) fail))
(query fail)

